Route 1: 0 66 74 76 87 22 36 17 27 57 0
Route 2: 0 59 97 11 78 92 8 89 1 0
Route 3: 0 60 72 71 9 86 68 0
Route 4: 0 79 53 90 19 82 77 16 88 35 38 49 0
Route 5: 0 18 69 26 61 37 24 20 100 15 0
Route 6: 0 28 55 13 70 75 10 31 23 0
Route 7: 0 7 30 83 84 33 47 54 45 0
Route 8: 0 64 99 44 39 32 3 4 51 94 50 52 0
Route 9: 0 96 12 65 40 80 81 14 85 2 58 0
Route 10: 0 25 5 41 21 91 63 42 56 0
Route 11: 0 48 93 34 73 46 95 62 67 6 29 0
Route 12: 0 43 98 0
